6846.0 423505.0 
6906.0 418636.0 
6932.0 415230.0 
6930.0 416816.0 
6854.0 419105.0 
6842.0 427299.0 
6935.0 414853.0 
6951.0 414183.0 
6956.0 413986.0 
6845.0 427055.0 
6921.0 417788.0 
6972.0 412765.0 
